50
360
10
12
11
81
57
40
7
60
15
24
89
0 2
0 3
0 4
0 8
0 15
0 16
0 20
0 26
0 33
0 39
0 48
1 3
1 6
1 7
1 9
1 10
1 14
1 16
1 17
1 24
1 25
1 30
1 33
1 40
1 42
1 43
2 4
2 6
2 7
2 9
2 12
2 18
2 22
2 24
2 32
2 45
3 6
3 12
3 14
3 19
3 22
3 28
3 30
3 33
3 38
3 39
3 40
3 41
3 44
3 46
3 48
3 49
4 9
4 10
4 14
4 16
4 20
4 22
4 24
4 25
4 30
4 35
4 37
4 38
4 41
4 45
4 48
5 10
5 12
5 21
5 22
5 25
5 26
5 31
5 42
5 45
6 9
6 10
6 16
6 18
6 19
6 26
6 27
6 30
6 33
6 34
6 35
6 41
6 42
6 48
6 49
7 8
7 11
7 14
7 15
7 16
7 19
7 21
7 23
7 27
7 37
7 40
7 43
7 47
7 49
8 9
8 11
8 14
8 16
8 26
8 29
8 39
8 40
8 44
8 47
8 48
9 10
9 12
9 13
9 17
9 20
9 24
9 26
9 30
9 31
9 36
9 38
9 45
9 46
9 49
10 11
10 14
10 15
10 17
10 23
10 25
10 26
10 28
10 30
10 31
10 35
10 49
11 13
11 16
11 20
11 32
11 34
11 36
11 37
11 40
11 43
12 18
12 21
12 23
12 25
12 32
12 33
12 35
12 39
12 41
12 44
12 46
13 16
13 22
13 24
13 25
13 26
13 27
13 31
13 32
13 34
13 35
13 41
13 48
14 18
14 19
14 20
14 24
14 26
14 29
14 30
14 34
14 37
14 40
14 41
14 43
14 45
14 49
15 23
15 26
15 30
15 34
15 37
15 43
16 25
16 28
16 29
16 31
16 32
16 33
16 35
16 38
16 41
16 44
16 45
16 46
16 48
17 20
17 24
17 27
17 30
17 32
17 37
17 42
17 45
17 47
18 19
18 22
18 24
18 27
18 28
18 32
18 33
18 35
18 39
18 49
19 27
19 31
19 33
19 36
19 38
19 42
19 46
19 49
20 21
20 25
20 31
20 32
20 33
20 34
20 35
20 36
20 42
20 44
20 45
21 23
21 24
21 25
21 26
21 28
21 29
21 30
21 31
21 35
21 40
21 42
21 45
22 29
22 30
22 39
22 40
22 45
23 36
23 42
23 44
23 46
23 48
24 27
24 29
24 33
24 37
24 40
24 43
24 47
24 48
25 28
25 29
25 30
25 34
25 35
25 36
25 38
25 39
25 46
26 29
26 31
26 36
26 41
26 42
26 44
26 47
27 29
27 30
27 31
27 32
27 33
27 34
27 36
27 38
27 44
27 46
27 47
27 48
28 37
29 30
29 40
29 42
29 44
29 45
30 32
30 33
30 38
30 41
30 42
30 44
30 47
30 49
31 32
31 35
31 39
31 40
31 41
31 48
32 35
32 38
32 39
32 43
32 47
33 34
34 36
34 37
34 46
34 47
34 48
34 49
35 39
35 40
35 41
35 42
35 43
35 46
35 47
36 40
36 41
36 42
37 44
38 39
38 41
38 47
39 44
39 49
40 48
41 42
41 46
41 49
42 49
43 44
43 46
43 47
44 49
30 3 48 18 1
27 7 14 15 26
20 22 29 9 43
0 39 16 44 37
10 2 4 36 6
49 32 24 31 28
21 45 23 38 40
34 17 42 35 19
11 5 13 12 46
8 47 33 25 41
